
Route #1: 5 59 27 36 48 49 34 30 
Route #2: 37 28 35 51 46 31 43 47 39 
Route #3: 19 56 15 53 12 61 10 55 58 13 
Route #4: 45 24 41 42 23 52 16 
Route #5: 26 20 54 29 60 7 
Route #6: 40 32 50 17 57 14 
Route #7: 11 33 44 21 22 1 
Route #8: 3 62 4 18 9 6 
Route #9: 25 38 8 2 
cost 2332.49
total time is 7.4